n_res = 4;
rcap = [10, 18, 81, 51];
rtype = [1, 1, 2, 2];
n_tasks = 10;
modes = [ {1, 2, 3}, {4, 5, 6}, {7, 8, 9}, {10, 11, 12}, {13, 14, 15}, {16, 17, 18}, {19, 20, 21}, {22, 23, 24}, {25, 26, 27}, {28, 29, 30} ];
succ = [ {9}, {5, 6, 8}, {4, 6, 10}, {8}, {7, 10}, {7}, {9}, {}, {}, {} ];
n_opt = 30;
dur = [6, 6, 7, 5, 7, 9, 1, 3, 9, 3, 4, 8, 2, 3, 6, 9, 9, 9, 2, 5, 8, 2, 6, 10, 1, 4, 10, 6, 8, 10];
rreq = [|  3,  0,  0,  0,  8,  0,  0,  8,  0,  0,  0,  0,  0,  6,  0,  3,  0,  0,  8,  3,  0,  0,  4,  0,  0,  2,  2,  0,  7,  0
        |  0, 10,  3,  4,  0,  3,  7,  0,  5,  8,  7,  3,  8,  0,  5,  0,  9,  5,  0,  0,  8,  6,  0,  4,  8,  0,  0,  4,  0,  3
        |  7,  0,  6, 10,  0,  6,  0,  5,  2,  0,  0, 10,  8,  6,  0,  0,  0,  7, 10,  0,  8,  0,  0,  7,  7,  6,  3, 10,  0,  0
        |  0,  3,  0,  0,  7,  0,  6,  0,  0,  3,  2,  0,  0,  0,  6,  9,  7,  0,  0,  8,  0,  8,  6,  0,  0,  0,  0,  0,  1,  1 |];
